1423,26093,12941,10150,20316,13742,25983,7228,55,11893,2050,3996,3937,12783,18063,1622,6499,4698,5665,7481,2339,3777,17262,5405,11011,15313,6223,1801,5017,5016,5740,19178,25293,25089,3426,20894,6220,8632,8097,24433,4320,17661,10305,9966,153,26018,18333,19607,19485,13903,25044,15989,6040,22050,24064,17888,7966,10295,7134,1872,5126,5306,8606,24650,4200,1433,24988,15335,1262,5168,1423